WARNING: for repeatability, setting FPU to use double precision
============================[ Problem Statistics ]=============================
|                                                                             |
|  Number of variables:        134781                                         |
|  Number of clauses:          648661                                         |
|  Parse time:                   0.14 s                                       |
|                                                                             |
c ============================[ Search Statistics ]==============================
c | Conflicts |          ORIGINAL         |          LEARNT          | Progress |
c |           |    Vars  Clauses Literals |    Limit  Clauses Lit/Cl |          |
c ===============================================================================
c Switched to VSIDS.
c Switched to LRB.
c Switched to VSIDS.
c ===============================================================================
restarts                  : 315
conflicts                 : 141779         (65 /sec)
decisions                 : 14784080       (0.00 % random) (6807 /sec)
propagations              : 4556877904     (2098134 /sec)
conflict literals         : 6998032        (72.28 % deleted)

conflicts w/ DIP found    : 89880          (63.39 % of conflicts)
conflicts w/ dangerous DIP: 0              (0.00 % of conflicts)
conflicts w/ DIP-learning : 384            (0.27 % of conflicts)
decisions on ext vars     : 5022           (0.03 % of decisions)
total ext vars            : 58          
tried delete ext vars     : 43          
deleted ext vars          : 43          
max ext vars              : 35          

Memory used               : 146.00 MB
CPU time                  : 2171.87 s
DIP computation time      : 294.608 s (13.56 % of total time)
ER_sel time               : 0.165216 s
ER_add time               : 0.000894 s
ER_delC time              : 0 s
ER_delV time              : 0.001413 s
ER_sub time               : 0.273177 s
ER_stat time              : 0 s

UNSATISFIABLE
